c colouring generated by benchmark framework
p edge 96 1368
v 1 14
v 2 11
v 3 2
v 4 10
v 5 5
v 6 0
v 7 3
v 8 1
v 9 9
v 10 8
v 11 6
v 12 12
v 13 7
v 14 12
v 15 14
v 16 3
v 17 13
v 18 6
v 19 10
v 20 2
v 21 4
v 22 1
v 23 5
v 24 8
v 25 9
v 26 8
v 27 10
v 28 2
v 29 7
v 30 4
v 31 12
v 32 13
v 33 5
v 34 3
v 35 0
v 36 11
v 37 5
v 38 4
v 39 1
v 40 11
v 41 6
v 42 10
v 43 9
v 44 7
v 45 8
v 46 13
v 47 12
v 48 2
v 49 2
v 50 10
v 51 0
v 52 5
v 53 4
v 54 12
v 55 8
v 56 11
v 57 1
v 58 7
v 59 9
v 60 14
v 61 8
v 62 9
v 63 12
v 64 13
v 65 10
v 66 3
v 67 7
v 68 4
v 69 2
v 70 0
v 71 11
v 72 6
v 73 10
v 74 7
v 75 8
v 76 0
v 77 11
v 78 13
v 79 5
v 80 3
v 81 6
v 82 12
v 83 4
v 84 9
v 85 0
v 86 3
v 87 11
v 88 4
v 89 1
v 90 14
v 91 6
v 92 8
v 93 13
v 94 5
v 95 7
v 96 10
